nNewSkillsPerPerson = 1;
nMaxJobs = 12;
sSkills = ["sk1","sk2","sk3","sk4","sk5","sk6","sk7","sk8","sk9","sk10","sk11","sk12","sk13","sk14","sk15","sk16","sk17","sk18","sk19","sk20","sk21","sk22","sk23","sk24","sk25","sk26","sk27","sk28","sk29","sk30","sk31","sk32","sk33","sk34","sk35","sk36","sk37","sk38","sk39","sk40","sk41","sk42","sk43","sk44","sk45","sk46","sk47","sk48","sk49","sk50","sk51","sk52","sk53","sk54","sk55","sk56","sk57","sk58","sk59","sk60","sk61","sk62","sk63","sk64","sk65","sk66","sk67","sk68","sk69","sk70","sk71","sk72","sk73","sk74","sk75","sk76","sk77","sk78","sk79","sk80","sk81","sk82","sk83",];

engineer_skills = [|0,0,0,0,0,0,0,0,0,0,0,0,1,1,1,1,1,1,1,1,1,1,1,1,1,1,1,1,1,1,1,0,0,0,0,0,0,0,0,0,0,0,0,0,0,0,0,0,0,0,0,0,0,0,0,0,0,0,0,0,0,0,0,0,0,0,1,0,0,0,0,0,0,0,0,0,0,0,0,0,0,0,0,|0,0,0,0,0,0,0,0,0,0,0,0,1,1,1,1,1,1,1,1,1,1,1,1,1,1,1,1,1,1,1,0,0,0,0,0,0,0,0,0,0,0,0,0,0,0,0,0,0,0,0,0,0,0,0,0,0,0,0,0,0,0,0,0,0,0,0,0,0,0,0,0,0,0,0,0,0,0,0,0,0,0,0,|0,0,0,0,0,0,0,0,0,0,0,0,1,1,1,1,1,1,1,1,1,1,1,1,1,1,1,1,1,1,1,0,0,0,0,0,0,0,1,0,0,0,0,0,0,0,1,0,0,0,0,0,0,0,0,0,0,0,0,0,0,0,0,0,0,0,0,0,0,0,0,0,0,0,0,0,0,0,0,0,0,0,0,|1,0,1,0,1,0,0,0,0,0,1,1,1,1,1,1,1,1,1,1,1,1,1,1,1,1,1,1,1,1,1,0,0,0,0,0,0,0,0,0,0,0,0,1,0,1,0,0,0,0,0,0,0,0,0,0,0,0,0,0,0,0,1,0,0,0,0,0,0,0,0,0,0,0,0,0,0,0,0,0,0,0,0,|0,0,1,0,0,0,0,0,0,0,0,0,1,1,1,1,1,1,1,1,1,1,1,1,1,1,1,1,1,1,1,0,0,0,0,0,0,0,0,0,0,0,0,0,0,0,0,0,0,0,0,0,0,0,0,0,0,0,0,0,0,0,1,0,0,0,0,0,0,0,0,0,0,0,0,0,0,0,0,0,0,0,0,|1,0,0,0,0,0,0,0,0,0,0,0,1,1,1,1,1,1,1,1,1,1,1,1,1,1,1,1,1,1,1,0,0,0,0,0,0,0,0,0,0,0,0,0,0,0,0,0,0,0,0,0,0,0,0,0,0,0,0,0,0,0,0,0,0,0,0,0,0,0,0,0,0,0,0,0,0,0,0,0,0,0,0,|0,0,0,0,0,0,0,0,0,0,0,0,1,1,1,1,1,1,1,1,1,1,1,1,1,1,1,1,1,1,1,0,1,0,0,0,0,0,0,0,0,0,0,0,0,0,0,0,0,0,0,1,0,0,0,0,1,0,0,0,0,0,0,0,0,0,0,0,0,0,0,0,0,0,0,0,0,0,0,0,0,0,0,|0,0,0,0,0,0,0,0,0,0,0,0,1,1,1,1,1,1,1,1,1,1,1,1,1,1,1,1,1,1,1,0,0,0,0,0,0,0,0,0,0,0,0,0,0,0,0,0,0,0,0,0,0,0,0,0,0,0,0,0,0,0,0,0,0,0,0,0,0,0,0,0,0,0,0,0,0,0,0,0,0,0,0,|0,0,0,0,0,0,0,0,0,0,0,0,1,1,1,1,1,1,1,1,1,1,1,1,1,1,1,1,1,1,1,0,0,0,0,0,0,0,0,0,0,0,0,0,0,0,0,0,0,0,0,0,0,0,0,0,0,0,0,0,0,0,0,0,0,0,0,0,0,0,0,0,0,0,0,0,0,0,0,0,0,0,0,|0,0,0,0,0,0,0,0,0,0,0,0,1,1,1,1,1,1,1,1,1,1,1,1,1,1,1,1,1,1,1,0,0,0,0,0,0,0,0,0,0,0,0,0,0,0,0,0,0,0,0,0,0,0,0,0,0,0,0,0,0,0,0,0,0,0,0,0,0,0,0,0,0,0,0,0,0,0,0,0,0,0,0,|0,0,0,0,0,0,0,0,0,0,0,0,1,1,1,1,1,1,1,1,1,1,1,1,1,1,1,1,1,1,1,0,0,0,0,0,0,0,0,0,0,0,0,0,0,0,0,0,0,0,0,0,0,0,0,0,0,0,0,0,0,0,0,0,0,0,0,0,0,0,0,0,0,0,0,0,0,0,0,0,0,0,0,|1,1,0,1,0,0,1,0,0,0,0,0,1,1,1,1,1,1,1,1,1,1,1,1,1,1,1,1,1,1,1,0,0,0,0,1,1,0,0,0,0,0,0,0,0,0,0,0,0,0,0,0,0,0,0,0,0,0,0,0,0,0,1,0,0,0,0,0,0,0,0,0,0,0,0,0,0,0,0,0,0,0,0,|1,1,0,1,0,0,0,0,0,1,0,0,1,1,1,1,1,1,1,1,1,1,1,1,1,1,1,1,1,1,1,0,0,0,0,1,1,0,0,0,1,0,0,0,1,0,1,0,0,0,0,0,0,0,0,0,0,0,0,0,0,0,1,0,0,0,0,0,0,0,0,0,0,0,0,0,0,0,0,0,0,0,0,|0,0,0,0,0,0,0,0,0,0,0,0,1,1,1,1,1,1,1,1,1,1,1,1,1,1,1,1,1,1,1,0,0,0,0,0,0,0,0,0,0,0,0,0,0,0,0,0,0,0,0,0,0,0,0,0,0,0,0,0,0,0,0,0,0,0,0,0,0,0,0,0,0,0,0,0,0,0,0,0,0,0,0,|1,1,1,0,0,0,1,1,1,0,0,0,1,1,1,1,1,1,1,1,1,1,1,1,1,1,1,1,1,1,1,0,0,1,1,0,1,0,0,1,0,0,1,0,0,0,0,0,0,0,0,0,0,0,0,0,0,0,0,0,0,0,0,0,0,0,0,0,0,0,0,1,0,0,0,0,0,0,0,0,0,0,0,|0,0,0,0,0,0,0,0,0,0,0,0,1,1,1,1,1,1,1,1,1,1,1,1,1,1,1,1,1,1,1,1,1,0,0,0,0,0,0,0,0,0,0,0,0,0,1,1,0,0,0,1,1,1,0,1,0,1,0,0,0,0,0,0,0,0,0,0,0,0,0,0,0,0,0,0,0,0,0,0,0,0,0,|1,0,1,0,0,0,1,1,1,1,0,0,1,1,1,1,1,1,1,1,1,1,1,1,1,1,1,1,1,1,1,0,0,0,1,1,1,0,0,1,0,0,1,1,0,1,0,0,0,0,0,0,0,0,0,0,0,0,0,0,0,0,1,0,0,0,0,0,0,0,0,0,0,0,0,0,0,0,0,0,0,0,0,|1,1,1,0,1,0,1,0,0,1,1,0,1,1,1,1,1,1,1,1,1,1,1,1,1,1,1,1,1,1,1,1,1,1,0,1,1,0,0,0,0,0,0,0,1,1,1,0,0,0,0,0,0,0,0,0,0,0,0,0,0,0,0,0,0,0,0,0,0,0,0,0,0,0,0,0,0,0,0,0,0,0,0,|1,0,1,0,0,0,1,1,1,1,1,0,1,1,1,1,1,1,1,1,1,1,1,1,1,1,1,1,1,1,1,0,0,0,1,0,1,0,0,1,0,0,0,0,1,0,0,0,0,0,0,0,0,0,0,0,0,0,0,0,0,0,1,0,0,0,0,0,0,0,0,0,0,0,0,0,0,0,0,0,0,0,0,|1,1,1,1,1,0,1,0,1,1,1,1,1,1,1,1,1,1,1,1,1,1,1,1,1,1,1,1,1,1,1,1,1,1,1,1,1,0,0,1,0,0,0,1,1,1,0,0,0,0,0,0,0,0,0,0,0,0,0,0,0,0,0,0,0,0,0,0,0,0,0,0,0,0,0,0,0,0,0,0,0,0,0,|0,1,0,0,0,0,0,1,1,0,0,0,1,1,1,1,1,1,1,1,1,1,1,1,1,1,1,1,1,1,1,1,1,0,0,0,0,0,0,0,0,1,0,0,0,0,0,0,0,0,0,1,0,0,0,0,0,1,0,0,0,0,0,0,0,0,0,0,0,0,0,1,0,0,0,0,0,0,0,0,0,0,0,|0,0,0,0,0,0,0,0,0,0,0,0,1,1,1,1,1,1,1,1,1,1,1,1,1,1,1,1,1,1,1,1,1,0,0,0,0,0,0,0,0,0,0,0,0,0,0,0,0,0,0,0,0,0,0,0,1,1,0,0,0,0,0,1,0,0,0,0,0,0,0,0,0,0,0,0,0,0,0,0,0,0,0,|0,0,0,0,0,0,0,0,0,0,0,0,1,1,1,1,1,1,1,1,1,1,1,1,1,1,1,1,1,1,1,0,1,0,0,0,0,0,0,0,0,0,0,0,0,0,1,1,1,1,0,1,1,0,0,0,0,0,0,0,0,0,0,0,0,0,0,0,0,0,0,0,0,0,0,0,0,0,0,0,0,0,0,|0,0,0,0,0,0,0,0,0,0,0,0,1,1,1,1,1,1,1,1,1,1,1,1,1,1,1,1,1,1,1,0,0,0,0,0,0,0,0,0,0,0,0,0,0,0,0,0,0,0,0,0,0,0,0,0,0,0,0,0,0,0,0,0,0,0,0,0,0,0,0,0,0,0,0,0,0,0,0,0,0,0,0,|1,1,1,0,0,0,0,1,0,0,0,0,1,1,1,1,1,1,1,1,1,1,1,1,1,1,1,1,1,1,1,0,0,1,0,0,0,0,0,0,0,0,0,0,0,0,0,0,0,0,0,0,0,0,0,0,0,0,0,0,0,0,0,0,0,0,0,0,0,0,0,1,1,0,0,0,0,0,0,0,0,0,0,|1,1,1,0,0,0,1,1,1,0,0,0,1,1,1,1,1,1,1,1,1,1,1,1,1,1,1,1,1,1,1,0,0,1,0,1,1,0,0,0,0,0,0,0,0,0,0,0,0,0,0,0,0,0,0,0,0,0,0,0,0,0,0,0,0,0,0,0,0,0,0,1,1,1,0,0,0,0,0,0,0,0,0,|1,0,1,0,0,0,0,0,0,0,0,0,1,1,1,1,1,1,1,1,1,1,1,1,1,1,1,1,1,1,1,0,0,1,0,0,0,0,0,0,0,0,0,0,0,0,0,0,0,0,0,0,0,0,0,0,0,0,0,0,0,0,0,0,0,0,0,0,0,0,0,1,0,0,0,0,0,0,0,0,0,0,0,|0,0,1,0,1,0,0,0,0,0,1,0,1,1,1,1,1,1,1,1,1,1,1,1,1,1,1,1,1,1,1,0,0,0,0,0,0,0,0,0,0,0,0,1,0,0,0,1,0,0,0,1,1,0,0,0,1,0,0,0,0,0,1,0,0,0,0,0,0,0,0,1,0,0,0,0,0,1,0,0,0,0,0,|0,0,1,0,1,0,0,0,0,0,1,0,1,1,1,1,1,1,1,1,1,1,1,1,1,1,1,1,1,1,1,0,0,0,0,0,0,0,0,0,0,0,0,1,0,0,0,0,0,0,0,0,0,0,0,0,0,0,0,0,0,0,1,0,0,0,0,0,0,0,0,0,0,0,0,0,0,0,0,0,0,0,0,|1,1,1,0,0,0,1,1,1,0,0,0,1,1,1,1,1,1,1,1,1,1,1,1,1,1,1,1,1,1,1,0,0,1,1,1,1,0,1,1,0,0,1,0,0,0,0,0,0,0,0,0,0,0,0,0,0,0,0,0,0,0,1,0,1,1,1,0,0,0,0,0,0,0,0,0,0,0,0,0,0,0,0,|0,1,1,0,0,0,1,1,1,0,0,0,1,1,1,1,1,1,1,1,1,1,1,1,1,1,1,1,1,1,1,0,0,0,1,1,1,0,0,1,0,0,0,0,0,0,0,0,0,0,0,0,0,0,0,0,0,0,0,0,0,0,0,0,0,0,0,0,0,0,0,0,0,0,0,0,0,0,0,0,0,0,0,|1,1,1,0,1,0,1,1,1,0,0,0,1,1,1,1,1,1,1,1,1,1,1,1,1,1,1,1,1,1,1,1,1,1,1,1,1,1,1,1,1,1,1,0,0,0,0,0,0,0,0,0,0,0,0,0,0,0,0,0,0,0,0,0,0,0,0,0,0,0,0,0,0,0,0,0,0,0,0,0,0,0,0,|1,1,1,0,1,1,1,0,0,1,0,0,1,1,1,1,1,1,1,1,1,1,1,1,1,1,1,1,1,1,1,1,1,0,0,0,0,0,0,0,0,0,0,0,1,0,0,1,1,1,1,1,1,0,0,0,0,0,0,0,0,0,0,0,0,0,0,0,0,0,0,0,0,1,1,0,0,0,0,0,0,0,0,|1,0,1,0,1,0,1,1,1,0,0,0,1,1,1,1,1,1,1,1,1,1,1,1,1,1,1,1,1,1,1,0,0,0,1,1,1,0,1,1,0,0,1,0,0,0,0,0,0,0,0,0,0,0,0,0,0,0,0,0,0,0,0,0,0,0,0,0,0,0,0,0,0,0,0,0,0,0,0,0,0,0,0,|0,1,1,1,1,0,1,1,1,1,0,0,1,1,1,1,1,1,1,1,1,1,1,1,1,1,1,1,1,1,1,1,1,1,1,0,1,0,1,1,0,0,1,0,0,0,0,0,0,0,0,0,0,0,0,0,0,0,0,0,0,0,0,0,0,0,0,0,0,0,0,0,0,0,0,0,0,0,0,0,0,0,0,|1,0,1,0,1,0,1,0,1,1,0,0,1,1,1,1,1,1,1,1,1,1,1,1,1,1,1,1,1,1,1,0,0,0,1,0,0,0,0,1,0,0,0,0,1,0,0,0,0,0,0,0,0,0,0,0,0,0,0,0,0,0,0,0,0,0,0,0,0,0,0,0,0,1,0,0,0,0,0,0,0,0,0,|1,1,1,1,1,1,1,1,1,1,1,0,1,1,1,1,1,1,1,1,1,1,1,1,1,1,1,1,1,1,1,1,1,0,1,0,0,0,0,1,0,0,0,1,0,1,0,0,0,0,0,0,0,0,0,0,0,0,0,0,0,0,0,1,0,0,0,0,0,0,0,0,0,0,0,0,0,0,0,0,0,0,0,|1,1,1,1,1,1,1,1,1,1,1,1,1,1,1,1,1,1,1,1,1,1,1,1,1,1,1,1,1,1,1,0,0,0,0,0,0,0,0,0,0,0,0,0,0,0,0,0,0,0,0,0,0,0,0,0,0,0,0,0,0,0,0,0,0,0,0,0,0,0,0,0,0,0,0,0,0,0,0,0,0,0,0,|0,0,0,0,0,0,0,0,0,0,0,0,1,1,1,1,1,1,1,1,1,1,1,1,1,1,1,1,1,1,1,0,0,0,0,0,0,0,0,0,0,0,0,0,0,0,0,0,0,0,0,0,0,0,0,0,0,0,0,0,0,0,0,0,1,0,1,0,0,0,0,0,0,0,0,0,0,0,0,0,0,0,0,|0,0,0,0,0,0,0,0,0,0,0,0,1,1,1,1,1,1,1,1,1,1,1,1,1,1,1,1,1,1,1,0,0,0,0,0,0,0,0,0,0,0,0,0,0,0,0,0,0,0,0,0,0,0,0,0,0,0,0,0,0,0,0,0,0,0,0,0,0,0,0,0,0,0,0,0,0,0,0,0,0,0,0,|1,1,0,0,0,0,1,1,0,0,0,0,1,1,1,1,1,1,1,1,1,1,1,1,1,1,1,1,1,1,1,0,0,1,0,0,1,0,0,0,0,0,0,0,0,0,0,0,0,0,0,0,0,0,0,0,0,0,0,0,0,0,0,0,0,0,1,0,0,1,1,0,1,1,0,0,0,0,1,0,0,0,0,|0,0,0,0,0,0,0,0,0,0,0,0,1,1,1,1,1,1,1,1,1,1,1,1,1,1,1,1,1,1,1,1,1,0,0,0,0,0,0,0,0,0,0,0,0,0,0,0,0,0,0,1,0,0,1,0,1,1,0,0,0,0,0,0,0,0,0,0,0,0,0,0,0,0,0,0,0,0,0,0,0,0,0,|0,0,0,0,0,0,0,0,0,0,0,0,1,1,1,1,1,1,1,1,1,1,1,1,1,1,1,1,1,1,1,0,0,0,0,0,0,0,0,0,0,0,0,0,0,0,0,0,0,0,0,0,0,0,0,0,0,0,0,0,0,0,0,0,0,0,0,0,0,0,0,0,0,0,0,0,0,0,0,0,0,0,0,|1,0,0,0,1,0,0,0,0,0,0,0,1,1,1,1,1,1,1,1,1,1,1,1,1,1,1,1,1,1,1,1,0,0,0,0,0,0,1,0,0,0,0,0,0,0,0,0,0,0,0,0,0,0,0,0,0,0,0,0,0,0,0,0,0,0,0,0,0,0,0,0,0,0,0,0,0,0,0,0,0,0,0,|0,0,0,0,0,0,0,0,0,0,0,0,1,1,1,1,1,1,1,1,1,1,1,1,1,1,1,1,1,1,1,0,0,0,0,0,0,0,0,0,0,0,0,0,0,0,0,0,0,0,0,0,0,0,0,0,0,0,0,0,0,0,0,0,0,0,0,0,0,0,0,0,0,0,0,0,0,0,0,0,0,0,0,|1,1,1,0,1,0,1,0,0,0,1,0,1,1,1,1,1,1,1,1,1,1,1,1,1,1,1,1,1,1,1,0,0,1,0,0,0,0,0,0,0,1,0,1,0,1,1,0,0,1,0,0,0,0,0,0,0,0,0,0,0,0,1,0,0,0,0,0,0,0,0,0,0,0,0,0,0,0,0,0,1,1,0,|0,0,1,0,1,0,0,0,0,1,1,0,1,1,1,1,1,1,1,1,1,1,1,1,1,1,1,1,1,1,1,0,0,0,0,0,0,0,0,0,0,0,0,1,1,1,0,0,0,0,0,0,0,0,0,0,0,0,0,0,0,0,0,0,0,0,0,0,0,0,0,1,0,0,0,0,0,0,0,0,0,0,0,|0,0,0,0,0,0,0,0,0,0,0,0,1,1,1,1,1,1,1,1,1,1,1,1,1,1,1,1,1,1,1,1,1,0,0,0,0,0,0,0,0,0,0,0,0,0,1,1,1,1,0,1,1,0,0,0,0,0,0,0,0,0,0,0,0,0,0,0,0,0,0,0,0,0,0,0,0,0,0,0,0,0,0,|0,0,0,0,0,0,0,0,0,0,0,0,1,1,1,1,1,1,1,1,1,1,1,1,1,1,1,1,1,1,1,1,1,0,0,0,0,0,0,0,0,0,0,0,0,0,1,1,0,1,1,1,1,1,0,0,0,0,0,0,0,0,0,0,0,0,0,0,0,0,0,0,0,0,0,0,0,0,1,0,0,0,1,|0,0,0,0,0,0,0,0,0,0,0,0,1,1,1,1,1,1,1,1,1,1,1,1,1,1,1,1,1,1,1,1,1,0,0,0,0,0,0,0,0,0,0,0,0,0,1,1,1,1,1,1,1,1,1,1,1,1,0,0,0,0,0,0,0,0,0,0,0,0,0,0,0,0,0,0,0,0,0,0,0,0,0,|0,0,1,0,0,0,0,0,0,1,0,0,1,1,1,1,1,1,1,1,1,1,1,1,1,1,1,1,1,1,1,1,1,0,0,0,0,0,0,0,0,0,0,1,0,1,1,1,1,1,0,1,1,0,1,0,1,0,1,1,1,1,1,1,0,0,0,0,0,0,0,0,0,0,0,0,0,0,0,0,0,0,0,|0,0,0,0,0,0,0,0,0,0,0,0,1,1,1,1,1,1,1,1,1,1,1,1,1,1,1,1,1,1,1,1,1,0,0,0,0,0,0,0,0,0,0,0,0,0,1,1,1,1,0,1,1,0,0,1,1,0,0,0,0,0,0,1,0,0,0,0,0,0,0,0,0,0,0,0,0,0,0,0,0,0,0,|1,0,0,0,0,0,0,0,0,0,0,0,1,1,1,1,1,1,1,1,1,1,1,1,1,1,1,1,1,1,1,0,0,0,0,1,1,0,0,0,0,0,0,0,0,0,0,1,1,1,0,0,1,0,0,0,0,0,0,0,0,0,0,0,0,0,0,0,0,0,0,0,0,0,0,0,0,0,0,0,0,0,0,|1,0,1,0,0,0,1,1,1,0,0,0,1,1,1,1,1,1,1,1,1,1,1,1,1,1,1,1,1,1,1,0,0,0,1,0,0,0,0,1,0,0,0,0,0,0,0,0,0,0,0,0,0,0,0,0,0,0,0,0,0,0,0,0,0,0,0,0,0,0,0,0,0,0,0,0,0,0,0,0,0,0,0,|0,0,1,0,0,0,0,0,0,1,1,1,1,1,1,1,1,1,1,1,1,1,1,1,1,1,1,1,1,1,1,0,0,0,0,0,0,0,0,0,0,0,0,1,0,1,0,0,0,0,0,0,0,0,0,0,0,0,0,0,0,0,1,0,1,0,1,0,0,0,0,0,0,0,0,1,1,0,0,0,0,0,0,|1,1,1,0,0,0,1,0,0,1,0,0,1,1,1,1,1,1,1,1,1,1,1,1,1,1,1,1,1,1,1,1,1,1,0,1,1,0,0,0,0,0,0,0,0,0,0,0,0,1,0,1,1,1,0,0,1,0,0,0,0,0,1,0,0,0,0,1,1,0,0,0,0,0,0,0,0,0,0,0,0,0,0,|1,1,1,0,0,0,0,0,0,1,0,0,1,1,1,1,1,1,1,1,1,1,1,1,1,1,1,1,1,1,1,1,1,1,0,1,1,0,0,0,0,0,0,0,0,0,1,1,0,1,0,0,1,1,0,0,1,0,0,0,0,0,1,0,1,0,1,0,0,1,1,0,0,0,0,0,0,0,0,0,0,0,0,|0,0,1,0,1,0,0,0,0,0,1,0,1,1,1,1,1,1,1,1,1,1,1,1,1,1,1,1,1,1,1,0,0,0,0,0,0,0,0,0,0,0,0,1,0,0,0,0,0,0,0,0,0,0,0,0,0,0,0,0,0,0,1,0,0,0,0,0,1,0,0,0,0,0,0,0,0,0,0,0,0,0,0,|1,1,0,1,0,0,0,0,0,1,0,0,1,1,1,1,1,1,1,1,1,1,1,1,1,1,1,1,1,1,1,1,1,0,0,0,0,0,0,0,0,0,0,0,1,0,0,0,0,0,0,1,0,0,0,0,0,0,0,0,0,0,0,0,0,0,0,0,0,0,0,0,0,0,0,0,0,0,0,0,0,0,0,|0,0,1,0,1,0,0,0,0,0,0,0,1,1,1,1,1,1,1,1,1,1,1,1,1,1,1,1,1,1,1,1,1,0,0,0,0,0,0,0,0,0,0,1,0,0,0,1,1,1,0,1,1,0,0,1,1,0,0,0,0,0,1,0,1,0,1,0,0,0,0,0,0,0,0,0,1,1,1,1,0,0,0,|1,0,1,0,0,0,1,1,1,0,0,0,1,1,1,1,1,1,1,1,1,1,1,1,1,1,1,1,1,1,1,0,0,0,0,1,1,0,0,0,0,0,0,1,0,1,0,0,0,0,0,0,0,0,0,0,0,0,0,0,0,0,1,0,0,0,0,0,0,0,0,0,0,0,0,0,0,0,0,0,0,0,0,|0,0,0,0,0,0,0,0,0,0,0,0,1,1,1,1,1,1,1,1,1,1,1,1,1,1,1,1,1,1,1,0,0,0,0,0,0,0,0,0,0,0,0,0,0,0,0,0,0,0,0,0,0,0,0,0,0,0,0,0,0,0,0,0,1,0,1,0,0,0,0,0,0,0,0,0,0,0,0,0,0,0,0,|0,0,0,0,0,0,0,0,0,0,0,0,1,1,1,1,1,1,1,1,1,1,1,1,1,1,1,1,1,1,1,0,1,0,0,0,0,0,0,0,0,0,0,0,0,0,1,1,0,1,0,0,1,0,0,0,1,0,0,0,0,0,0,0,0,0,0,0,0,0,0,0,0,0,0,0,0,0,0,0,0,0,0,|0,0,0,0,0,0,0,0,0,0,0,0,1,1,1,1,1,1,1,1,1,1,1,1,1,1,1,1,1,1,1,0,0,0,0,0,0,0,0,0,0,0,0,0,0,0,1,0,0,1,0,0,0,0,0,0,0,0,0,0,0,0,0,0,0,0,0,0,0,0,0,0,0,0,0,0,0,0,0,0,0,0,0,|0,0,0,0,1,0,0,1,0,0,0,0,1,1,1,1,1,1,1,1,1,1,1,1,1,1,1,1,1,1,1,0,0,0,0,0,0,0,0,0,0,0,0,0,0,1,0,0,0,0,0,0,0,0,0,0,0,0,0,0,0,0,0,0,0,0,0,0,0,0,0,0,0,0,0,0,0,0,0,0,0,0,0,|];

engineer_location = [0,3977,0,2572,3130,3073,0,0,0,0,0,0,0,3137,2066,6018,3178,3106,6107,3807,0,6069,2166,3977,3805,5073,3939,3066,2127,3133,6151,2040,2570,3912,4073,4573,5082,4115,0,3150,3030,6058,3180,0,0,4505,2213,6918,2137,3156,6149,4074,3204,3182,3128,5047,4006,6148,0,3152,2141,0,4512,0,0,];

jobs = [|69, 1, 5, 5010, 0|17, 1, 1, 4029, 0|44, 1, 2, 2067, 0|29, 1, 7, 5005, 0|37, 1, 14, 5031, 0|25, 1, 14, 5031, 0|33, 1, 1, 2114, 0|52, 1, 1, 2114, 0|33, 1, 11, 3175, 0|33, 1, 1, 3175, 0|48, 1, 1, 6104, 0|24, 14, 10, 3179, 0|23, 2, 1, 2116, 0|1, 2, 1, 2116, 0|68, 2, 4, 6090, 0|64, 1, 7, 6155, 0|32, 2, 12, 4102, 0|33, 2, 1, 6065, 0|48, 2, 2, 4680, 0|10, 2, 2, 5013, 0|9, 7, 6, 6009, 0|33, 2, 1, 4108, 0|69, 2, 1, 3064, 0|68, 3, 1, 4053, 0|65, 3, 14, 2031, 0|39, 3, 1, 4610, 0|9, 3, 2, 3052, 0|70, 26, 7, 2010, 0|29, 3, 2, 3026, 0|15, 3, 1, 6646, 0|68, 4, 1, 6208, 0|15, 4, 1, 6646, 0|52, 4, 3, 6109, 0|1, 5, 1, 6009, 0|68, 5, 1, 3030, 0|7, 5, 2, 4014, 0|76, 5, 1, 2609, 0|29, 5, 1, 2115, 0|78, 5, 1, 2115, 0|15, 5, 1, 4719, 0|68, 5, 1, 4068, 0|26, 5, 14, 3175, 0|2, 5, 2, 3083, 0|32, 5, 1, 2066, 0|53, 5, 9, 2234, 0|68, 5, 1, 4102, 0|9, 8, 11, 2617, 0|51, 5, 1, 4000, 0|37, 5, 1, 6102, 0|75, 5, 14, 3175, 0|53, 5, 1, 810, 0|17, 5, 1, 4680, 0|70, 5, 1, 2753, 0|9, 5, 1, 7008, 0|33, 5, 14, 2113, 0|52, 5, 1, 6090, 0|33, 5, 12, 3170, 0|10, 5, 2, 6102, 0|10, 5, 1, 6712, 0|53, 2, 9, 2600, 0|32, 5, 1, 3550, 0|32, 6, 1, 6155, 0|6, 6, 1, 3179, 0|64, 6, 1, 6155, 0|15, 6, 1, 6109, 0|20, 6, 1, 3083, 0|68, 6, 5, 6714, 0|33, 6, 1, 2114, 0|10, 6, 1, 6712, 0|23, 7, 1, 2113, 0|23, 7, 1, 2113, 0|76, 7, 1, 6105, 0|69, 7, 1, 2116, 0|44, 7, 14, 6102, 0|19, 7, 1, 2127, 0|20, 7, 1, 3179, 0|52, 7, 1, 6090, 0|53, 25, 11, 3175, 0|2, 8, 1, 3083, 0|32, 8, 1, 6090, 0|64, 8, 1, 2609, 0|1, 8, 7, 3012, 0|44, 8, 1, 4029, 0|33, 8, 1, 3166, 0|10, 27, 7, 3400, 0|44, 8, 2, 3132, 0|69, 8, 3, 3170, 0|37, 9, 1, 6102, 0|53, 9, 2, 2113, 0|68, 9, 1, 4870, 0|2, 9, 6, 2116, 0|73, 9, 1, 2116, 0|29, 9, 10, 5095, 0|68, 9, 1, 6090, 0|17, 8, 2, 6432, 0|78, 9, 1, 6432, 0|68, 9, 1, 6150, 0|32, 9, 1, 6150, 0|33, 9, 1, 6109, 0|33, 9, 5, 6109, 0|15, 9, 1, 6431, 0|10, 9, 2, 4680, 0|18, 10, 1, 6167, 0|68, 1, 0, 6167, 0|23, 10, 1, 2116, 0|15, 10, 1, 2671, 0|32, 10, 1, 6150, 0|15, 10, 1, 6440, 0|9, 10, 1, 3052, 0|23, 5, 7, 5000, 0|29, 10, 1, 6167, 0|24, 10, 14, 3179, 0|49, 10, 1, 3179, 0|21, 10, 14, 2164, 0|10, 10, 1, 4207, 0|10, 11, 2, 6710, 0|2, 12, 5, 4014, 0|78, 12, 1, 3004, 0|76, 12, 2, 2609, 0|15, 12, 1, 4719, 0|29, 12, 1, 3170, 0|23, 12, 3, 2086, 0|69, 12, 1, 4102, 0|33, 12, 1, 2113, 0|7, 1, 2, 3168, 0|63, 12, 7, 6102, 0|15, 12, 1, 810, 0|7, 12, 3, 2611, 0|2, 12, 1, 6102, 0|9, 13, 1, 2113, 0|32, 13, 2, 6155, 0|76, 13, 4, 3207, 0|6, 13, 1, 2067, 0|76, 13, 11, 3179, 0|23, 13, 1, 3084, 0|32, 13, 1, 2164, 0|76, 13, 1, 2113, 0|33, 13, 1, 7009, 0|10, 14, 2, 2067, 0|68, 14, 14, 6090, 0|64, 10, 13, 6155, 0|33, 14, 6, 6109, 0|10, 14, 1, 4811, 0|37, 14, 1, 3168, 0|64, 14, 14, 5000, 0|33, 14, 1, 4006, 0|73, 14, 1, 9053, 1|23, 14, 1, 3004, 0|33, 14, 1, 5013, 0|54, 28, 0, 5042, 0|52, 14, 1, 6155, 0|23, 15, 1, 5095, 0|15, 15, 1, 6430, 0|17, 15, 1, 6430, 0|2, 15, 1, 3052, 0|68, 15, 5, 5095, 0|33, 15, 1, 2015, 0|63, 15, 1, 2308, 0|21, 15, 1, 5064, 0|69, 15, 1, 2113, 0|52, 15, 1, 3179, 0|20, 16, 4, 6154, 0|17, 16, 1, 2285, 0|68, 16, 1, 6090, 0|68, 16, 1, 6090, 0|76, 16, 1, 6102, 0|2, 16, 1, 3284, 0|40, 16, 3, 4102, 0|52, 16, 1, 6090, 0|23, 16, 1, 2308, 0|32, 16, 1, 3010, 0|23, 7, 4, 5095, 0|64, 17, 1, 3207, 0|32, 17, 2, 3207, 0|23, 17, 1, 6102, 0|23, 17, 5, 6009, 0|39, 17, 10, 3136, 0|53, 17, 1, 4006, 0|51, 17, 5, 2234, 0|9, 17, 2, 3052, 0|40, 17, 1, 3122, 0|52, 17, 2, 4825, 0|20, 17, 8, 3175, 0|24, 17, 14, 6009, 0|15, 18, 1, 6430, 0|71, 18, 1, 3050, 0|10, 6, 12, 6712, 0|52, 18, 1, 3936, 0|68, 19, 1, 2113, 0|69, 20, 14, 6102, 0|69, 20, 1, 3170, 0|6, 20, 10, 3171, 0|69, 20, 1, 3170, 0|53, 20, 1, 810, 0|10, 20, 1, 3170, 0|48, 20, 1, 3061, 0|10, 20, 2, 3170, 0|10, 20, 1, 2036, 0|48, 20, 1, 6167, 0|53, 20, 1, 6009, 0|33, 20, 1, 6109, 0|65, 3, 12, 2145, 0|15, 20, 1, 6430, 0|33, 20, 1, 2015, 0|2, 20, 1, 6102, 0|52, 20, 1, 3171, 0|73, 20, 1, 3010, 0|16, 20, 1, 2835, 0|68, 21, 1, 3170, 0|32, 21, 1, 6150, 0|18, 9, 12, 2052, 0|76, 21, 1, 2113, 0|2, 21, 1, 6102, 0|25, 21, 1, 2611, 0|52, 21, 1, 3171, 0|21, 21, 1, 2164, 0|15, 21, 1, 6430, 0|44, 21, 1, 4053, 0|33, 21, 1, 6102, 0|10, 21, 1, 3047, 0|24, 8, 13, 4128, 0|24, 21, 14, 4128, 0|9, 21, 3, 2139, 0|68, 22, 1, 4053, 0|23, 22, 1, 2116, 0|44, 22, 3, 6154, 0|17, 22, 1, 3166, 0|32, 22, 2, 4108, 0|29, 22, 1, 3608, 0|15, 22, 1, 6431, 0|20, 22, 1, 3083, 0|32, 22, 1, 7005, 0|78, 22, 2, 2164, 0|2, 22, 14, 3047, 0|7, 22, 1, 2650, 0|74, 22, 1, 2116, 0|33, 1, 13, 3175, 0|20, 22, 14, 2114, 0|10, 22, 1, 3047, 0|15, 22, 2, 2671, 0|64, 23, 1, 2050, 0|15, 29, 13, 2870, 0|32, 23, 1, 6155, 0|76, 23, 14, 3207, 0|2, 23, 1, 3047, 0|33, 23, 1, 3170, 0|20, 23, 14, 2611, 0|20, 23, 1, 3175, 0|26, 23, 1, 3012, 0|21, 23, 2, 6102, 0|32, 24, 1, 2164, 0|32, 24, 1, 3207, 0|32, 24, 1, 6090, 0|40, 24, 1, 2007, 0|23, 9, 13, 3084, 0|65, 24, 1, 2000, 0|76, 24, 1, 2007, 0|52, 24, 1, 2800, 0|17, 24, 1, 6430, 0|10, 24, 2, 4680, 0|73, 24, 1, 2113, 0|25, 24, 1, 5031, 0|17, 24, 1, 4740, 0|52, 24, 1, 4053, 0|33, 24, 1, 4053, 0|68, 25, 6, 6090, 0|29, 25, 1, 3050, 0|10, 25, 1, 6710, 0|20, 26, 13, 2113, 0|10, 26, 1, 6102, 0|37, 28, 6, 6102, 0|78, 8, 1, 2115, 0|23, 28, 1, 2116, 0|76, 3, 8, 2141, 0|32, 28, 1, 3207, 0|1, 28, 1, 3052, 0|76, 28, 1, 6009, 0|9, 28, 14, 3052, 0|76, 28, 1, 4102, 0|33, 28, 1, 3842, 0|21, 28, 1, 2164, 0|33, 30, 2, 2067, 0|15, 28, 1, 6005, 0|21, 29, 4, 6102, 0|23, 29, 1, 2116, 0|76, 29, 9, 6009, 0|32, 29, 1, 6155, 0|74, 29, 1, 2036, 0|73, 29, 1, 3067, 0|48, 29, 1, 2681, 0|32, 30, 1, 4053, 0|9, 30, 6, 2113, 0|64, 30, 1, 3207, 0|68, 10, 12, 6150, 0|32, 30, 8, 4102, 0|34, 30, 1, 5064, 0|33, 30, 4, 6109, 0|33, 30, 4, 2113, 0|71, 30, 1, 4000, 0|20, 30, 2, 7008, 0|52, 30, 1, 2322, 0|73, 30, 1, 3048, 0|37, 30, 1, 7315, 0|33, 30, 2, 4108, 0|33, 30, 2, 4108, 0|54, 30, 11, 4102, 0|70, 30, 1, 2145, 0|7, 30, 2, 6102, 0|21, 30, 1, 3170, 0|20, 30, 1, 5064, 0|23, 30, 8, 4172, 0|21, 31, 1, 6102, 0|2, 31, 8, 4014, 0|32, 21, 5, 4870, 0|32, 31, 1, 4870, 0|34, 12, 1, 4014, 0|1, 31, 1, 2116, 0|32, 31, 1, 3179, 0|23, 31, 1, 3010, 0|76, 31, 14, 2113, 0|15, 31, 1, 6430, 0|2, 31, 1, 6102, 0|17, 31, 1, 6430, 0|44, 17, 7, 3175, 0|63, 31, 1, 2308, 0|10, 31, 2, 828, 0|73, 31, 14, 4014, 0|54, 31, 2, 4102, 0|54, 31, 3, 4102, 0|21, 31, 1, 5064, 0|21, 31, 3, 5064, 0|24, 31, 1, 2164, 0|20, 31, 5, 3175, 0|];